(set-logic ALL)
(declare-fun seed0_T_1 () Int)
(declare-fun seed0_T_2 () Bool)
(declare-fun seed0_var_0xINPUT_223666 () String)
(assert (and (or (>= seed0_T_1 (str.len seed0_var_0xINPUT_223666)) (or (> (+ seed0_T_1 173) (div seed0_T_1 seed0_T_1)) (< (div seed0_T_1 seed0_T_1) (- seed0_T_1 671)))) (or (= seed0_T_2 (= seed0_T_1 0)) (or (= (* seed0_T_1 seed0_T_1) (div seed0_T_1 seed0_T_1)) (= (+ seed0_T_1 328) (mod seed0_T_1 seed0_T_1)))) (or seed0_T_2 (= (+ seed0_T_1 726) (+ seed0_T_1 349)))))
(check-sat)
(exit)